 vasp           
 1.00000000
  7.380000    0.000000    0.000000
  0.000000    7.380000    0.000000
  0.000000    0.000000    7.380000
 Zn Cu Cu 
   2   30   32
 Direct
  0.000000    0.000000    0.000000
  0.000000    0.250000    0.250000
  0.000000    0.000000    0.500000
  0.000000    0.500000    0.000000
  0.000000    0.500000    0.500000
  0.500000    0.000000    0.000000
  0.500000    0.000000    0.500000
  0.500000    0.500000    0.000000
  0.500000    0.500000    0.500000
  0.000000    0.250000    0.750000
  0.000000    0.750000    0.250000
  0.000000    0.750000    0.750000
  0.500000    0.250000    0.250000
  0.500000    0.250000    0.750000
  0.500000    0.750000    0.250000
  0.500000    0.750000    0.750000
  0.250000    0.000000    0.250000
  0.250000    0.000000    0.750000
  0.250000    0.500000    0.250000
  0.250000    0.500000    0.750000
  0.750000    0.000000    0.250000
  0.750000    0.000000    0.750000
  0.750000    0.500000    0.250000
  0.750000    0.500000    0.750000
  0.250000    0.250000    0.000000
  0.250000    0.250000    0.500000
  0.250000    0.750000    0.000000
  0.250000    0.750000    0.500000
  0.750000    0.250000    0.000000
  0.750000    0.250000    0.500000
  0.750000    0.750000    0.000000
  0.750000    0.750000    0.500000
  0.250000    0.250000    0.250000
  0.250000    0.250000    0.750000
  0.250000    0.750000    0.250000
  0.250000    0.750000    0.750000
  0.750000    0.250000    0.250000
  0.750000    0.250000    0.750000
  0.750000    0.750000    0.250000
  0.750000    0.750000    0.750000
  0.250000    0.000000    0.000000
  0.250000    0.000000    0.500000
  0.250000    0.500000    0.000000
  0.250000    0.500000    0.500000
  0.750000    0.000000    0.000000
  0.750000    0.000000    0.500000
  0.750000    0.500000    0.000000
  0.750000    0.500000    0.500000
  0.000000    0.250000    0.000000
  0.000000    0.250000    0.500000
  0.000000    0.750000    0.000000
  0.000000    0.750000    0.500000
  0.500000    0.250000    0.000000
  0.500000    0.250000    0.500000
  0.500000    0.750000    0.000000
  0.500000    0.750000    0.500000
  0.000000    0.000000    0.250000
  0.000000    0.000000    0.750000
  0.000000    0.500000    0.250000
  0.000000    0.500000    0.750000
  0.500000    0.000000    0.250000
  0.500000    0.000000    0.750000
  0.500000    0.500000    0.250000
  0.500000    0.500000    0.750000
